\Problem name: compact

Minimize
OBJROW: C
Subject To
ord(0,1):  - x(j0,m0) + x(j0,m2) >= 3
ord(0,2):  x(j0,m1) - x(j0,m2) >= 9
ord(1,1):  x(j1,m1) - x(j1,m2) >= 7
ord(1,2):  x(j1,m0) - x(j1,m1) >= 8
ord(2,1):  - x(j2,m0) + x(j2,m1) >= 7
ord(2,2):  - x(j2,m1) + x(j2,m2) >= 4
phi(0,1,0):  x(j0,m0) + 49 y(j0,k1,m0) - x(j1,m0) >= 1
psy(0,1,0):  - x(j0,m0) -49 y(j0,k1,m0) + x(j1,m0) >= -46
phi(0,1,1):  x(j0,m1) + 49 y(j0,k1,m1) - x(j1,m1) >= 8
psy(0,1,1):  - x(j0,m1) -49 y(j0,k1,m1) + x(j1,m1) >= -40
phi(0,1,2):  x(j0,m2) + 49 y(j0,k1,m2) - x(j1,m2) >= 7
psy(0,1,2):  - x(j0,m2) -49 y(j0,k1,m2) + x(j1,m2) >= -40
phi(0,2,0):  x(j0,m0) + 49 y(j0,k2,m0) - x(j2,m0) >= 7
psy(0,2,0):  - x(j0,m0) -49 y(j0,k2,m0) + x(j2,m0) >= -46
phi(0,2,1):  x(j0,m1) + 49 y(j0,k2,m1) - x(j2,m1) >= 4
psy(0,2,1):  - x(j0,m1) -49 y(j0,k2,m1) + x(j2,m1) >= -40
phi(0,2,2):  x(j0,m2) + 49 y(j0,k2,m2) - x(j2,m2) >= 1
psy(0,2,2):  - x(j0,m2) -49 y(j0,k2,m2) + x(j2,m2) >= -40
phi(1,0,0):  - x(j0,m0) + 49 y(j1,k0,m0) + x(j1,m0) >= 3
psy(1,0,0):  x(j0,m0) -49 y(j1,k0,m0) - x(j1,m0) >= -48
phi(1,0,1):  - x(j0,m1) + 49 y(j1,k0,m1) + x(j1,m1) >= 9
psy(1,0,1):  x(j0,m1) -49 y(j1,k0,m1) - x(j1,m1) >= -41
phi(1,0,2):  - x(j0,m2) + 49 y(j1,k0,m2) + x(j1,m2) >= 9
psy(1,0,2):  x(j0,m2) -49 y(j1,k0,m2) - x(j1,m2) >= -42
phi(1,2,0):  x(j1,m0) + 49 y(j1,k2,m0) - x(j2,m0) >= 7
psy(1,2,0):  - x(j1,m0) -49 y(j1,k2,m0) + x(j2,m0) >= -48
phi(1,2,1):  x(j1,m1) + 49 y(j1,k2,m1) - x(j2,m1) >= 4
psy(1,2,1):  - x(j1,m1) -49 y(j1,k2,m1) + x(j2,m1) >= -41
phi(1,2,2):  x(j1,m2) + 49 y(j1,k2,m2) - x(j2,m2) >= 1
psy(1,2,2):  - x(j1,m2) -49 y(j1,k2,m2) + x(j2,m2) >= -42
phi(2,0,0):  - x(j0,m0) + 49 y(j2,k0,m0) + x(j2,m0) >= 3
psy(2,0,0):  x(j0,m0) -49 y(j2,k0,m0) - x(j2,m0) >= -42
phi(2,0,1):  - x(j0,m1) + 49 y(j2,k0,m1) + x(j2,m1) >= 9
psy(2,0,1):  x(j0,m1) -49 y(j2,k0,m1) - x(j2,m1) >= -45
phi(2,0,2):  - x(j0,m2) + 49 y(j2,k0,m2) + x(j2,m2) >= 9
psy(2,0,2):  x(j0,m2) -49 y(j2,k0,m2) - x(j2,m2) >= -48
phi(2,1,0):  - x(j1,m0) + 49 y(j2,k1,m0) + x(j2,m0) >= 1
psy(2,1,0):  x(j1,m0) -49 y(j2,k1,m0) - x(j2,m0) >= -42
phi(2,1,1):  - x(j1,m1) + 49 y(j2,k1,m1) + x(j2,m1) >= 8
psy(2,1,1):  x(j1,m1) -49 y(j2,k1,m1) - x(j2,m1) >= -45
phi(2,1,2):  - x(j1,m2) + 49 y(j2,k1,m2) + x(j2,m2) >= 7
psy(2,1,2):  x(j1,m2) -49 y(j2,k1,m2) - x(j2,m2) >= -48
makespan(0):  C - x(j0,m1) >= 9
makespan(1):  C - x(j1,m0) >= 1
makespan(2):  C - x(j2,m2) >= 1
cut_split(1):  0.95000 y(j0,k1,m0) + 0.95000 y(j1,k0,m2) + 0.95000 y(j0,k2,m2) + 0.95000 y(j2,k0,m2) + 0.95000 y(j1,k2,m2) + 0.95000 y(j2,k1,m2) >= 0.93878
cut_split(2):  0.95000 y(j0,k1,m0) + 0.95000 y(j2,k1,m1) + 0.95000 y(j1,k0,m2) + 0.95000 y(j0,k2,m2) + 0.95000 y(j2,k0,m2) + 0.95000 y(j1,k2,m2) >= 1.13367
cut_split(3):  0.90000 y(j0,k2,m0) + 0.90000 y(j2,k0,m0) + 0.90000 y(j0,k1,m2) + 0.90000 y(j1,k0,m2) + 0.90000 y(j0,k2,m2) + 0.90000 y(j2,k0,m2) + 0.90000 y(j1,k2,m2) + 0.90000 y(j2,k1,m2) >= 0.89796
cut_split(4):  0.90000 y(j0,k2,m0) -0.02041 x(j2,m0) + 0.90000 y(j2,k1,m1) + 0.02041 x(j2,m1) + 0.90000 y(j1,k0,m2) + 0.90000 y(j0,k2,m2) + 0.90000 y(j2,k0,m2) + 0.90000 y(j1,k2,m2) + 0.90000 y(j2,k1,m2) >= 1.04286
cut_split(5):  0.80000 y(j0,k2,m0) + 0.80000 y(j2,k0,m0) + 0.80000 y(j2,k1,m1) + 0.80000 y(j1,k0,m2) + 0.80000 y(j0,k2,m2) >= 0.79592
cut_split(6):  0.80000 y(j0,k2,m0) -0.02041 x(j2,m0) + 0.80000 y(j2,k1,m1) + 0.02041 x(j2,m1) + 0.80000 y(j1,k0,m2) + 0.80000 y(j0,k2,m2) + 0.80000 y(j2,k0,m2) + 0.80000 y(j1,k2,m2) + 0.80000 y(j2,k1,m2) >= 0.94286
cut_split(7):  0.70000 y(j0,k1,m0) + 0.70000 y(j2,k1,m0) + 0.70000 y(j0,k1,m1) + 0.70000 y(j1,k0,m1) -0.00017 x(j1,m1) + 0.69189 y(j1,k2,m1) + 0.00017 x(j2,m1) + 0.70000 y(j1,k0,m2) + 0.70000 y(j0,k2,m2) + 0.70000 y(j2,k0,m2)
 + 0.70000 y(j1,k2,m2) + 0.70000 y(j2,k1,m2) >= 1.39322
cut_split(8):  0.02041 x(j0,m1) + 0.70000 y(j0,k1,m1) -0.02041 x(j0,m2) + 0.70000 y(j1,k0,m2) + 0.70000 y(j0,k2,m2) + 0.70000 y(j2,k0,m2) + 0.70000 y(j1,k2,m2) + 0.70000 y(j2,k1,m2) >= 0.85714
cut_split(9):  0.70000 y(j0,k2,m0) -0.02041 x(j2,m0) + 0.70000 y(j2,k1,m1) + 0.02041 x(j2,m1) + 0.70000 y(j1,k0,m2) + 0.70000 y(j0,k2,m2) + 0.70000 y(j2,k0,m2) + 0.70000 y(j1,k2,m2) + 0.70000 y(j2,k1,m2) >= 0.84286
cut_split(10):  0.60000 y(j0,k2,m0) + 0.60000 y(j2,k0,m0) + 0.60000 y(j0,k1,m1) + 0.60000 y(j1,k0,m1) + 0.60000 y(j2,k0,m1) + 0.60000 y(j1,k2,m1) + 0.60000 y(j2,k1,m1) + 0.60000 y(j0,k1,m2) + 0.60000 y(j1,k0,m2) + 0.60000 y(j0,k2,m2)
 >= 1.19184
cut_split(11):  0.60000 y(j0,k2,m0) + 0.60000 y(j2,k0,m0) + 0.60000 y(j2,k1,m0) + 0.60000 y(j1,k0,m1) + 0.60000 y(j1,k2,m1) + 0.60000 y(j2,k1,m1) + 0.60000 y(j0,k1,m2) + 0.60000 y(j1,k0,m2) + 0.60000 y(j0,k2,m2) >= 1.17143
cut_split(12):  0.02041 C + 0.60000 y(j0,k2,m0) + 0.60000 y(j2,k1,m0) -0.02041 x(j0,m1) + 0.60000 y(j1,k0,m1) + 0.60000 y(j2,k0,m1) + 0.60000 y(j1,k2,m1) + 0.60000 y(j2,k1,m1) + 0.60000 y(j1,k0,m2) + 0.60000 y(j0,k2,m2)
 >= 1.38367
cut_split(13):  0.60000 y(j0,k2,m0) + 0.00219 x(j1,m0) + 0.49268 y(j2,k1,m0) -0.00219 x(j2,m0) + 0.60000 y(j1,k0,m1) + 0.60000 y(j2,k1,m1) + 0.60000 y(j1,k0,m2) + 0.60000 y(j0,k2,m2) + 0.60000 y(j1,k2,m2) + 0.60000 y(j2,k1,m2)
 >= 1.10801
cut_split(14):  0.02041 C -0.02041 x(j0,m2) + 0.60000 y(j1,k0,m2) + 0.60000 y(j0,k2,m2) + 0.60000 y(j2,k0,m2) + 0.60000 y(j1,k2,m2) + 0.60000 y(j2,k1,m2) >= 0.87755
cut_split(15):  0.60000 y(j0,k2,m2) + 0.60000 y(j2,k0,m2) + 0.60000 y(j1,k2,m2) + 0.60000 y(j2,k1,m2) >= 0.36735
cut_split(16):  0.50000 y(j0,k1,m2) + 0.50000 y(j1,k0,m2) + 0.50000 y(j1,k2,m2) + 0.50000 y(j2,k1,m2) >= 0.48980
cut_split(17):  0.02041 C -0.02041 x(j0,m2) + 0.50000 y(j1,k0,m2) + 0.50000 y(j0,k2,m2) + 0.50000 y(j2,k0,m2) + 0.50000 y(j1,k2,m2) + 0.50000 y(j2,k1,m2) >= 0.86735
cut_split(18):  0.50000 y(j0,k2,m2) + 0.50000 y(j2,k0,m2) + 0.50000 y(j1,k2,m2) + 0.50000 y(j2,k1,m2) >= 0.36735
cut_split(19):  0.04082 C -0.02041 x(j1,m0) + 0.95000 y(j2,k1,m0) + 0.95000 y(j0,k1,m1) + 0.95000 y(j1,k2,m1) + 0.95000 y(j0,k2,m2) -0.02041 x(j2,m2) >= 0.97959
cut_split(20):  0.02041 C -0.00095 x(j0,m0) + 0.85333 y(j0,k1,m0) -0.01946 x(j1,m0) + 0.90000 y(j0,k1,m1) + 0.90000 y(j2,k0,m1) + 0.90000 y(j1,k2,m1) >= 0.87660
cut_split(21):  0.02041 C -0.01955 x(j0,m0) -0.05778 y(j0,k1,m0) -0.00086 x(j1,m0) + 0.90000 y(j0,k1,m1) + 0.90000 y(j1,k0,m1) + 0.90000 y(j1,k2,m1) + 0.90000 y(j2,k1,m1) >= 0.92127
cut_split(22):  0.02041 C + 0.80000 y(j0,k1,m0) -0.02041 x(j1,m0) + 0.80000 y(j0,k1,m1) + 0.80000 y(j1,k0,m1) >= 0.79592
cut_split(23):  0.02041 C + 0.80000 y(j1,k0,m1) + 0.80000 y(j1,k2,m1) + 0.80000 y(j2,k1,m1) + 0.80000 y(j0,k2,m2) -0.02041 x(j2,m2) >= 0.81633
cut_split(24):  0.02041 C -0.00059 x(j0,m0) + 0.67111 y(j0,k1,m0) -0.01982 x(j1,m0) + 0.70000 y(j1,k2,m1) + 0.70000 y(j2,k1,m1) >= 0.69329
cut_split(25):  0.70000 y(j0,k1,m1) + 0.70000 y(j1,k0,m1) + 0.70000 y(j1,k2,m1) + 0.70000 y(j2,k1,m1) >= 0.59184
cut_split(26):  0.60000 y(j0,k1,m1) + 0.60000 y(j1,k0,m1) + 0.60000 y(j1,k2,m1) + 0.60000 y(j2,k1,m1) >= 0.59184
cut_split(27):  0.50000 y(j0,k2,m1) + 0.50000 y(j2,k0,m1) + 0.50000 y(j1,k2,m1) + 0.50000 y(j2,k1,m1) >= 0.50000
cut_split(28):  0.02041 C + 0.50000 y(j0,k1,m0) -0.02041 x(j1,m0) >= 0.44898
cut_split(29):  0.50000 y(j0,k1,m1) + 0.50000 y(j1,k0,m1) + 0.50000 y(j1,k2,m1) + 0.50000 y(j2,k1,m1) >= 0.50000
cut_split(30):  0.95000 y(j0,k2,m0) + 0.95000 y(j2,k1,m0) + 0.95000 y(j1,k0,m1) >= 0.75510
cut_split(31):  0.95000 y(j0,k2,m0) -0.02041 x(j2,m0) + 0.95000 y(j1,k0,m1) + 0.95000 y(j2,k1,m1) + 0.02041 x(j2,m1) >= 0.73469
cut_split(32):  0.90000 y(j0,k2,m0) + 0.90000 y(j2,k1,m0) + 0.90000 y(j1,k0,m1) >= 0.75510
cut_split(33):  0.02041 C -0.10000 y(j2,k0,m0) -0.02041 x(j2,m0) -0.00171 x(j1,m1) + 0.81622 y(j1,k2,m1) + 0.00171 x(j2,m1) >= 0.40132
cut_split(34):  0.90000 y(j0,k2,m0) -0.02041 x(j2,m0) + 0.90000 y(j1,k0,m1) + 0.90000 y(j2,k1,m1) + 0.02041 x(j2,m1) >= 0.73469
cut_split(35):  0.80000 y(j0,k2,m0) + 0.80000 y(j2,k1,m0) + 0.80000 y(j1,k0,m1) >= 0.75510
cut_split(36):  0.70000 y(j0,k2,m0) -0.02041 x(j2,m0) + 0.70000 y(j1,k0,m1) + 0.70000 y(j2,k1,m1) + 0.02041 x(j2,m1) >= 0.73469
cut_split(37):  0.70000 y(j0,k2,m0) + 0.70000 y(j2,k1,m0) + 0.70000 y(j1,k0,m1) >= 0.70000
cut_split(38):  0.02041 C -0.00351 x(j0,m0) -0.12821 y(j2,k0,m0) -0.01690 x(j2,m0) + 0.70000 y(j1,k2,m1) >= 0.41868
cut_split(39):  0.60000 y(j0,k2,m0) -0.02041 x(j2,m0) + 0.60000 y(j1,k0,m1) + 0.60000 y(j2,k1,m1) + 0.02041 x(j2,m1) >= 0.73469
cut_split(40):  0.02041 C + 0.50000 y(j0,k2,m0) -0.02041 x(j1,m0) + 0.50000 y(j2,k1,m0) >= 0.52041
cut_split(41):  0.02041 C -0.02041 x(j0,m1) + 0.50000 y(j1,k0,m1) -0.00193 x(j1,m1) + 0.40541 y(j1,k2,m1) + 0.50000 y(j2,k1,m1) + 0.00193 x(j2,m1) >= 0.60452
cut_split(42):  0.50000 y(j0,k2,m0) -0.02041 x(j2,m0) + 0.50000 y(j1,k0,m1) + 0.50000 y(j2,k1,m1) + 0.02041 x(j2,m1) >= 0.64286
cut_split(43):  -0.02041 x(j0,m0) -0.05000 y(j0,k1,m0) + 0.02041 x(j1,m0) + 0.95000 y(j1,k0,m1) + 0.95000 y(j1,k0,m2) + 0.95000 y(j0,k2,m2) + 0.95000 y(j2,k1,m2) >= 0.88878
cut_split(44):  -0.02041 x(j0,m0) -0.10000 y(j0,k1,m0) + 0.02041 x(j1,m0) + 0.90000 y(j1,k0,m1) + 0.90000 y(j1,k0,m2) + 0.90000 y(j0,k2,m2) + 0.90000 y(j2,k1,m2) >= 0.83878
cut_split(45):  0.80000 y(j2,k0,m1) + 0.80000 y(j0,k2,m2) >= 0.46939
cut_split(46):  0.70000 y(j2,k0,m1) + 0.70000 y(j0,k2,m2) >= 0.46939
cut_split(47):  0.60000 y(j2,k0,m1) + 0.02041 x(j1,m1) + 0.60000 y(j1,k2,m1) + 0.60000 y(j0,k2,m2) -0.02041 x(j1,m2) + 0.60000 y(j2,k1,m2) >= 0.61224
cut_split(48):  0.50000 y(j2,k0,m1) + 0.02041 x(j1,m1) + 0.50000 y(j1,k2,m1) + 0.50000 y(j0,k2,m2) -0.02041 x(j1,m2) + 0.50000 y(j2,k1,m2) >= 0.61224
cut_split(49):  0.00029 x(j0,m1) -0.03594 y(j0,k1,m1) + 0.02012 x(j1,m1) -0.02041 x(j0,m2) + 0.95000 y(j1,k0,m2) >= 0.32883
cut_split(50):  -0.01889 x(j0,m2) + 0.02424 y(j0,k1,m2) + 0.95000 y(j1,k0,m2) + 0.01889 x(j1,m2) >= 0.19428
cut_split(51):  -0.02041 x(j0,m0) -0.05000 y(j0,k1,m0) + 0.02041 x(j1,m0) + 0.95000 y(j1,k0,m1) >= 0.54184
cut_split(52):  0.00185 x(j0,m1) -0.00937 y(j0,k1,m1) + 0.01856 x(j1,m1) -0.02041 x(j0,m2) + 0.90000 y(j1,k0,m2) >= 0.34133
cut_split(53):  0.02041 x(j1,m1) + 0.90000 y(j1,k2,m1) -0.02041 x(j2,m1) -0.10000 y(j2,k1,m2) >= 0.08163
cut_split(54):  0.02041 x(j1,m1) + 0.90000 y(j1,k2,m1) -0.02041 x(j2,m1) -0.01931 x(j0,m2) -0.10000 y(j0,k1,m2) + 0.84615 y(j2,k0,m2) + 0.01931 x(j2,m2) >= 0.25542
cut_split(55):  -0.01738 x(j0,m2) + 0.04848 y(j0,k1,m2) + 0.90000 y(j1,k0,m2) + 0.01738 x(j1,m2) >= 0.20489
cut_split(56):  0.01771 x(j1,m1) + 0.90000 y(j1,k2,m1) + 0.03243 y(j2,k1,m1) -0.01771 x(j2,m1) >= 0.10325
cut_split(57):  0.00497 x(j0,m1) + 0.04375 y(j0,k1,m1) + 0.01543 x(j1,m1) -0.02041 x(j0,m2) + 0.80000 y(j1,k0,m2) >= 0.36633
cut_split(58):  -0.01416 x(j0,m1) + 0.10625 y(j0,k1,m1) + 0.80000 y(j1,k0,m1) + 0.01416 x(j1,m1) >= 0.23367
cut_split(59):  0.80000 y(j1,k0,m1) + 0.02041 x(j1,m1) -0.01311 x(j0,m2) + 0.15758 y(j0,k1,m2) -0.00730 x(j1,m2) >= 0.41843
cut_split(60):  -0.02041 x(j0,m0) -0.20000 y(j0,k1,m0) + 0.02041 x(j1,m0) + 0.80000 y(j1,k0,m1) >= 0.39184
cut_split(61):  -0.01103 x(j0,m1) + 0.15938 y(j0,k1,m1) + 0.70000 y(j1,k0,m1) + 0.01103 x(j1,m1) >= 0.25867
cut_split(62):  0.00314 x(j1,m0) + 0.54634 y(j2,k1,m0) -0.00314 x(j2,m0) + 0.70000 y(j1,k2,m2) >= 0.56829
cut_split(63):  -0.01132 x(j0,m2) + 0.14545 y(j0,k1,m2) + 0.70000 y(j1,k0,m2) + 0.01132 x(j1,m2) >= 0.24731
cut_split(64):  0.70000 y(j1,k0,m1) + 0.02041 x(j1,m1) -0.01008 x(j0,m2) + 0.20606 y(j0,k1,m2) -0.01033 x(j1,m2) >= 0.43964
cut_split(65):  0.00712 x(j1,m0) + 0.35122 y(j2,k1,m0) -0.00712 x(j2,m0) + 0.70000 y(j1,k2,m1) >= 0.40105
cut_split(66):  0.01230 x(j1,m1) + 0.70000 y(j1,k2,m1) + 0.09730 y(j2,k1,m1) -0.01230 x(j2,m1) >= 0.14650
cut_split(67):  0.00070 x(j1,m0) + 0.56585 y(j2,k1,m0) -0.00070 x(j2,m0) + 0.60000 y(j1,k2,m2) >= 0.57073
cut_split(68):  -0.01015 x(j0,m2) + 0.10256 y(j0,k2,m2) + 0.60000 y(j2,k0,m2) + 0.01015 x(j2,m2) >= 0.19393
cut_split(69):  0.00085 x(j0,m1) + 0.45833 y(j2,k0,m1) -0.00085 x(j2,m1) + 0.50000 y(j0,k2,m2) >= 0.46173
cut_split(70):  0.00224 x(j1,m0) + 0.39024 y(j2,k1,m0) -0.00224 x(j2,m0) + 0.50000 y(j1,k2,m1) >= 0.40592
cut_split(71):  0.50000 y(j2,k1,m0) + 0.50000 y(j1,k2,m2) >= 0.50000
cut_split(72):  0.01435 x(j0,m1) + 0.20312 y(j0,k1,m1) + 0.00606 x(j1,m1) -0.02041 x(j0,m2) + 0.50000 y(j1,k0,m2) >= 0.44133
cut_split(73):  0.02041 x(j0,m1) + 0.95000 y(j0,k1,m1) -0.00090 x(j0,m2) -0.00606 y(j1,k0,m2) -0.01951 x(j1,m2) >= 0.31419
cut_split(74):  -0.10000 y(j2,k0,m0) -0.02041 x(j2,m0) + 0.02041 x(j0,m1) + 0.90000 y(j0,k2,m1) >= 0.22449
cut_split(75):  0.02041 C + 0.90000 y(j0,k1,m1) + 0.90000 y(j1,k2,m2) -0.02041 x(j2,m2) >= 0.51020
cut_split(76):  0.04082 C -0.02041 x(j0,m0) -0.10000 y(j0,k1,m0) + 0.90000 y(j0,k1,m1) + 0.90000 y(j1,k2,m2) -0.02041 x(j2,m2) >= 0.83878
cut_split(77):  -0.00094 x(j0,m0) -0.15385 y(j2,k0,m0) -0.01947 x(j2,m0) + 0.02041 x(j0,m1) + 0.80000 y(j0,k2,m1) >= 0.22732
cut_split(78):  0.04082 C + 0.70000 y(j0,k1,m1) + 0.70000 y(j0,k2,m1) -0.02041 x(j2,m1) + 0.70000 y(j1,k2,m2) -0.02041 x(j2,m2) >= 0.77551
cut_split(79):  0.02041 C + 0.70000 y(j0,k1,m1) + 0.70000 y(j1,k2,m2) -0.02041 x(j2,m2) >= 0.51020
cut_split(80):  0.02041 C -0.30000 y(j2,k0,m0) -0.02041 x(j2,m0) >= 0.24490
cut_split(81):  0.02041 C + 0.60000 y(j0,k1,m1) -0.01964 x(j1,m1) + 0.56216 y(j2,k1,m1) -0.00077 x(j2,m1) + 0.60000 y(j1,k2,m2) >= 0.74892
cut_split(82):  0.00518 x(j1,m1) + 0.34595 y(j2,k1,m1) -0.00518 x(j2,m1) + 0.60000 y(j1,k2,m2) >= 0.36669
cut_split(83):  -0.40000 y(j2,k0,m0) -0.02041 x(j2,m0) + 0.02041 x(j0,m1) + 0.60000 y(j0,k1,m1) + 0.60000 y(j1,k2,m2) >= 0.15102
cut_split(84):  0.02041 C + 0.50000 y(j0,k1,m1) + 0.50000 y(j1,k2,m2) -0.02041 x(j2,m2) >= 0.51020
cut_split(85):  0.02041 C -0.02041 x(j1,m0) -0.05000 y(j1,k2,m0) >= 0.02041
cut_split(86):  -0.10000 y(j2,k0,m0) -0.10000 y(j1,k2,m0) + 0.01078 x(j0,m1) + 0.42813 y(j0,k1,m1) -0.01078 x(j1,m1) >= -0.01378
cut_split(87):  0.02041 C -0.10000 y(j2,k0,m0) -0.02041 x(j1,m0) -0.10000 y(j1,k2,m0) >= -0.07959
cut_split(88):  -0.20000 y(j2,k0,m0) -0.20000 y(j1,k2,m0) + 0.01390 x(j0,m1) + 0.48125 y(j0,k1,m1) -0.01390 x(j1,m1) >= -0.08878
cut_split(89):  0.02041 C -0.02041 x(j1,m0) -0.20000 y(j1,k2,m0) >= 0.02041
cut_split(90):  0.02041 C -0.20000 y(j2,k0,m0) -0.02041 x(j1,m0) -0.20000 y(j1,k2,m0) >= -0.17959
cut_split(91):  -0.30000 y(j2,k0,m0) -0.30000 y(j1,k2,m0) + 0.01703 x(j0,m1) + 0.53438 y(j0,k1,m1) -0.01703 x(j1,m1) >= -0.16378
cut_split(92):  0.02041 C -0.30000 y(j2,k0,m0) -0.02041 x(j1,m0) -0.30000 y(j1,k2,m0) >= -0.27959
cut_split(93):  -0.40000 y(j2,k0,m0) -0.40000 y(j1,k2,m0) + 0.02015 x(j0,m1) + 0.58750 y(j0,k1,m1) -0.02015 x(j1,m1) >= -0.23878
cut_split(94):  0.02041 C -0.40000 y(j2,k0,m0) -0.02041 x(j1,m0) -0.40000 y(j1,k2,m0) >= -0.37959
cut_split(95):  0.02041 C -0.50000 y(j2,k0,m0) -0.02041 x(j1,m0) -0.50000 y(j1,k2,m0) >= -0.47959
cut_split(96):  0.02041 C -0.02041 x(j0,m2) -0.05000 y(j0,k1,m2) >= 0.36735
cut_split(97):  0.02041 C -0.02041 x(j0,m1) -0.05000 y(j0,k1,m1) >= 0.18367
cut_split(98):  0.02041 C -0.02041 x(j0,m2) -0.10000 y(j0,k1,m2) >= 0.36735
cut_split(99):  0.02041 C -0.02041 x(j0,m1) -0.10000 y(j0,k1,m1) >= 0.18367
cut_split(100):  0.01728 x(j0,m1) + 0.90000 y(j0,k1,m1) + 0.05312 y(j1,k0,m1) -0.01728 x(j1,m1) >= 0.19139
cut_split(101):  0.01416 x(j0,m1) + 0.80000 y(j0,k1,m1) + 0.10625 y(j1,k0,m1) -0.01416 x(j1,m1) >= 0.21952
cut_split(102):  0.01103 x(j0,m1) + 0.70000 y(j0,k1,m1) + 0.15937 y(j1,k0,m1) -0.01103 x(j1,m1) >= 0.24764
cut_split(103):  0.02041 C -0.01677 x(j0,m1) -0.12188 y(j0,k1,m1) -0.00364 x(j1,m1) >= 0.21276
cut_split(104):  0.02041 C -0.00853 x(j0,m2) + 0.28205 y(j0,k2,m2) -0.01188 x(j2,m2) >= 0.37923
cut_split(105):  0.00791 x(j0,m1) + 0.60000 y(j0,k1,m1) + 0.21250 y(j1,k0,m1) -0.00791 x(j1,m1) >= 0.27577
cut_split(106):  0.02041 C -0.01633 x(j1,m1) + 0.40000 y(j2,k1,m1) -0.00408 x(j2,m1) + 0.60000 y(j0,k2,m2) >= 0.60000
cut_split(107):  0.00478 x(j0,m1) + 0.50000 y(j0,k1,m1) + 0.26562 y(j1,k0,m1) -0.00478 x(j1,m1) >= 0.30389
cut_split(108):  0.02041 C -0.01903 x(j1,m1) + 0.43243 y(j2,k1,m1) -0.00138 x(j2,m1) + 0.50000 y(j0,k2,m2) >= 0.62162
cut_split(109):  0.02041 C + 0.02041 x(j0,m0) -0.05000 y(j1,k0,m0) + 0.95000 y(j0,k2,m0) -0.02041 x(j1,m0) -0.02041 x(j2,m0) >= 0.16327
cut_split(110):  0.01913 x(j0,m0) + 0.95000 y(j0,k2,m0) + 0.01282 y(j2,k0,m0) -0.01913 x(j2,m0) >= 0.14670
cut_split(111):  0.02041 C + 0.02041 x(j0,m0) -0.10000 y(j1,k0,m0) + 0.90000 y(j0,k2,m0) -0.02041 x(j1,m0) -0.02041 x(j2,m0) >= 0.16327
cut_split(112):  0.01784 x(j0,m0) + 0.90000 y(j0,k2,m0) + 0.02564 y(j2,k0,m0) -0.01784 x(j2,m0) >= 0.15055
cut_split(113):  0.80000 y(j0,k2,m0) -0.02041 x(j2,m0) + 0.01633 x(j0,m2) + 0.00408 x(j2,m2) >= 0.24082
cut_split(114):  0.01528 x(j0,m0) + 0.80000 y(j0,k2,m0) + 0.05128 y(j2,k0,m0) -0.01528 x(j2,m0) >= 0.15824
cut_split(115):  0.70000 y(j0,k2,m0) -0.02041 x(j2,m0) + 0.00754 x(j0,m1) + 0.33056 y(j2,k0,m1) + 0.01287 x(j2,m1) >= 0.50357
cut_split(116):  0.70000 y(j0,k2,m0) -0.02041 x(j2,m0) + 0.01376 x(j0,m2) + 0.02564 y(j2,k0,m2) + 0.00665 x(j2,m2) >= 0.26389
cut_split(117):  0.01272 x(j0,m2) + 0.70000 y(j0,k2,m2) + 0.07692 y(j2,k0,m2) -0.01272 x(j2,m2) >= 0.08964
cut_split(118):  0.02041 x(j0,m0) + 0.70000 y(j0,k2,m0) -0.30000 y(j2,k0,m0) -0.02041 x(j2,m0) + 0.01272 x(j0,m2) + 0.70000 y(j0,k2,m2) + 0.07692 y(j2,k0,m2) -0.01272 x(j2,m2) >= -0.06750
cut_split(119):  -0.30000 y(j2,k0,m0) -0.02041 x(j2,m0) -0.30000 y(j0,k1,m1) + 0.01914 x(j1,m1) + 0.63784 y(j1,k2,m1) + 0.00127 x(j2,m1) >= -0.08058
cut_split(120):  0.01272 x(j0,m0) + 0.70000 y(j0,k2,m0) + 0.07692 y(j2,k0,m0) -0.01272 x(j2,m0) >= 0.16593
cut_split(121):  0.60000 y(j0,k2,m0) -0.02041 x(j2,m0) + 0.00476 x(j0,m1) + 0.36667 y(j2,k0,m1) + 0.01565 x(j2,m1) >= 0.52857
cut_split(122):  0.02041 C + 0.60000 y(j0,k2,m0) -0.02041 x(j2,m0) -0.01522 x(j1,m1) + 0.34595 y(j2,k1,m1) + 0.01522 x(j2,m1) >= 0.69322
cut_split(123):  0.00829 x(j0,m2) + 0.60000 y(j0,k1,m2) + 0.19394 y(j1,k0,m2) -0.00829 x(j1,m2) >= 0.25195
cut_split(124):  0.02041 C -0.00188 x(j0,m0) -0.30769 y(j2,k0,m0) -0.01852 x(j2,m0) >= 0.25055
cut_split(125):  0.01015 x(j0,m0) + 0.60000 y(j0,k2,m0) + 0.10256 y(j2,k0,m0) -0.01015 x(j2,m0) >= 0.17363
cut_split(126):  0.50000 y(j0,k2,m0) -0.02041 x(j2,m0) + 0.00198 x(j0,m1) + 0.40278 y(j2,k0,m1) + 0.01842 x(j2,m1) >= 0.55357
cut_split(127):  0.02041 C + 0.50000 y(j0,k2,m0) -0.02041 x(j2,m0) -0.01793 x(j1,m1) + 0.37838 y(j2,k1,m1) + 0.01793 x(j2,m1) >= 0.71484
cut_split(128):  0.02041 C + 0.50000 y(j0,k1,m2) + 0.50000 y(j1,k2,m2) -0.02041 x(j2,m2) >= 0.52041
cut_split(129):  0.00392 x(j0,m2) + 0.50000 y(j0,k1,m2) + 0.30769 y(j2,k0,m2) + 0.50000 y(j1,k2,m2) -0.00392 x(j2,m2) >= 0.31162
cut_split(130):  0.01919 x(j1,m2) + 0.95000 y(j1,k2,m2) + 0.00976 y(j2,k1,m2) -0.01919 x(j2,m2) >= 0.02894
cut_split(131):  0.01797 x(j1,m2) + 0.90000 y(j1,k2,m2) + 0.01951 y(j2,k1,m2) -0.01797 x(j2,m2) >= 0.03748
cut_split(132):  0.01553 x(j1,m2) + 0.80000 y(j1,k2,m2) + 0.03902 y(j2,k1,m2) -0.01553 x(j2,m2) >= 0.05455
cut_split(133):  0.01309 x(j1,m2) + 0.70000 y(j1,k2,m2) + 0.05854 y(j2,k1,m2) -0.01309 x(j2,m2) >= 0.07163
cut_split(134):  0.02041 C + 0.70000 y(j1,k2,m2) -0.02041 x(j2,m2) >= 0.34694
cut_split(135):  0.01065 x(j1,m2) + 0.60000 y(j1,k2,m2) + 0.07805 y(j2,k1,m2) -0.01065 x(j2,m2) >= 0.08870
cut_split(136):  0.02041 C + 0.60000 y(j1,k2,m2) -0.02041 x(j2,m2) >= 0.34694
cut_split(137):  0.00821 x(j1,m2) + 0.50000 y(j1,k2,m2) + 0.09756 y(j2,k1,m2) -0.00821 x(j2,m2) >= 0.10577
cut_split(138):  -0.05000 y(j1,k2,m1) -0.01565 x(j1,m2) + 0.71707 y(j2,k1,m2) + 0.01565 x(j2,m2) >= 0.10958
cut_split(139):  -0.10000 y(j1,k2,m1) -0.01687 x(j1,m2) + 0.72683 y(j2,k1,m2) + 0.01687 x(j2,m2) >= 0.11812
cut_split(140):  -0.20000 y(j1,k2,m1) -0.01931 x(j1,m2) + 0.74634 y(j2,k1,m2) + 0.01931 x(j2,m2) >= 0.13519
cut_split(141):  -0.01553 x(j1,m2) + 0.03902 y(j1,k2,m2) + 0.80000 y(j2,k1,m2) + 0.01553 x(j2,m2) >= 0.14774
cut_split(142):  0.00149 x(j1,m1) -0.22703 y(j1,k2,m1) -0.00149 x(j2,m1) -0.02041 x(j1,m2) + 0.70000 y(j2,k1,m2) + 0.02041 x(j2,m2) >= 0.14881
cut_split(143):  -0.01309 x(j1,m2) + 0.05854 y(j1,k2,m2) + 0.70000 y(j2,k1,m2) + 0.01309 x(j2,m2) >= 0.15017
cut_split(144):  0.70000 y(j0,k2,m0) -0.02041 x(j2,m0) + 0.01103 x(j0,m1) + 0.15938 y(j1,k0,m1) + 0.00938 x(j1,m1) -0.02041 x(j1,m2) + 0.70000 y(j2,k1,m2) + 0.02041 x(j2,m2) >= 0.61499
cut_split(145):  -0.00351 x(j0,m0) -0.12821 y(j2,k0,m0) -0.01690 x(j2,m0) + 0.02041 x(j0,m1) + 0.70000 y(j0,k2,m1) >= 0.23501
cut_split(146):  0.00663 x(j0,m1) + 0.27500 y(j1,k0,m1) + 0.01378 x(j1,m1) + 0.60000 y(j0,k2,m2) -0.02041 x(j1,m2) + 0.60000 y(j2,k1,m2) >= 0.47092
cut_split(147):  0.00767 x(j0,m2) + 0.22424 y(j1,k0,m2) + 0.60000 y(j0,k2,m2) -0.00767 x(j1,m2) + 0.60000 y(j2,k1,m2) >= 0.27792
cut_split(148):  0.00351 x(j0,m1) + 0.32812 y(j1,k0,m1) + 0.01690 x(j1,m1) + 0.50000 y(j0,k2,m2) -0.02041 x(j1,m2) + 0.50000 y(j2,k1,m2) >= 0.49904
cut_split(149):  0.00464 x(j0,m2) + 0.27273 y(j1,k0,m2) + 0.50000 y(j0,k2,m2) -0.00464 x(j1,m2) + 0.50000 y(j2,k1,m2) >= 0.30519
cut_split(150):  -0.02017 x(j0,m0) -0.03846 y(j0,k2,m0) -0.00024 x(j2,m0) + 0.02041 x(j0,m1) -0.05000 y(j2,k0,m1) >= 0.19655
cut_split(151):  -0.05000 y(j0,k2,m1) -0.05000 y(j2,k0,m1) >= -0.05000
cut_split(152):  -0.01889 x(j0,m0) -0.02564 y(j0,k2,m0) -0.00152 x(j2,m0) + 0.02041 x(j0,m1) -0.10000 y(j2,k0,m1) >= 0.15552
cut_split(153):  -0.10000 y(j0,k2,m1) -0.10000 y(j2,k0,m1) >= -0.10000
cut_split(154):  -0.20000 y(j0,k2,m1) -0.20000 y(j2,k0,m1) >= -0.20000
cut_split(155):  -0.01376 x(j0,m0) + 0.02564 y(j0,k2,m0) -0.00665 x(j2,m0) + 0.02041 x(j0,m1) -0.30000 y(j2,k0,m1) >= -0.00858
cut_split(156):  0.00096 x(j0,m1) -0.25278 y(j0,k2,m1) -0.30000 y(j2,k0,m1) -0.00096 x(j2,m1) >= -0.29615
cut_split(157):  -0.01120 x(j0,m0) + 0.05128 y(j0,k2,m0) -0.00921 x(j2,m0) + 0.02041 x(j0,m1) -0.40000 y(j2,k0,m1) >= -0.09063
cut_split(158):  0.50000 y(j2,k1,m1) -0.00224 x(j1,m2) + 0.39024 y(j1,k2,m2) + 0.00224 x(j2,m2) >= 0.40592
cut_split(159):  0.00415 x(j0,m1) + 0.29687 y(j1,k0,m1) + 0.01626 x(j1,m1) + 0.50000 y(j0,k1,m2) -0.02041 x(j1,m2) >= 0.47290
cut_split(160):  -0.00863 x(j0,m0) + 0.07692 y(j0,k2,m0) -0.01177 x(j2,m0) + 0.02041 x(j0,m1) -0.50000 y(j2,k0,m1) >= -0.17268
cut_split(161):  -0.00478 x(j0,m1) + 0.26562 y(j0,k1,m1) + 0.50000 y(j1,k0,m1) + 0.00478 x(j1,m1) >= 0.30867
cut_split(162):  0.00652 x(j0,m1) -0.18056 y(j0,k2,m1) -0.50000 y(j2,k0,m1) -0.00652 x(j2,m1) >= -0.47392
cut_split(163):  -0.05000 y(j0,k1,m0) -0.05000 y(j1,k0,m0) >= -0.05000
cut_split(164):  0.00041 x(j0,m0) -0.08000 y(j0,k1,m0) -0.10000 y(j1,k0,m0) -0.00041 x(j1,m0) >= -0.09959
cut_split(165):  -0.00215 x(j0,m0) + 0.79487 y(j0,k2,m0) -0.01826 x(j2,m0) + 0.02041 x(j0,m2) -0.10000 y(j1,k0,m2) -0.10000 y(j2,k1,m2) >= 0.08906
cut_split(166):  -0.10000 y(j1,k0,m2) -0.10000 y(j0,k2,m2) -0.10000 y(j2,k1,m2) >= -0.20000
cut_split(167):  -0.10000 y(j1,k2,m1) -0.10000 y(j2,k1,m2) >= -0.10000
cut_split(168):  0.02041 x(j0,m1) -0.10000 y(j2,k0,m1) -0.10000 y(j1,k2,m1) -0.02041 x(j0,m2) -0.10000 y(j0,k2,m2) -0.10000 y(j2,k1,m2) >= -0.11633
cut_split(169):  0.80000 y(j0,k2,m0) -0.02041 x(j2,m0) + 0.02041 x(j0,m2) -0.20000 y(j1,k0,m2) -0.00040 x(j1,m2) -0.18049 y(j2,k1,m2) + 0.00040 x(j2,m2) >= 0.00687
cut_split(170):  -0.20000 y(j1,k0,m2) -0.20000 y(j0,k2,m2) -0.20000 y(j2,k1,m2) >= -0.40000
cut_split(171):  0.01664 x(j0,m0) + 0.61538 y(j0,k2,m0) -0.20000 y(j2,k0,m0) -0.01664 x(j2,m0) -0.20000 y(j1,k0,m2) -0.20000 y(j0,k2,m2) -0.20000 y(j2,k1,m2) >= -0.48352
cut_split(172):  -0.20000 y(j1,k2,m1) -0.20000 y(j2,k1,m2) >= -0.20000
cut_split(173):  0.02041 x(j0,m1) -0.20000 y(j2,k0,m1) -0.20000 y(j1,k2,m1) -0.02041 x(j0,m2) -0.20000 y(j0,k2,m2) -0.20000 y(j2,k1,m2) >= -0.41633
cut_split(174):  -0.30000 y(j1,k0,m2) -0.30000 y(j0,k2,m2) -0.30000 y(j2,k1,m2) >= -0.60000
cut_split(175):  -0.30000 y(j0,k1,m1) + 0.02041 x(j1,m1) -0.30000 y(j1,k0,m2) -0.02041 x(j1,m2) >= -0.15714
cut_split(176):  0.01920 x(j0,m0) + 0.64103 y(j0,k2,m0) -0.30000 y(j2,k0,m0) -0.01920 x(j2,m0) -0.30000 y(j1,k0,m2) -0.30000 y(j0,k2,m2) -0.30000 y(j2,k1,m2) >= -0.76557
cut_split(177):  0.01868 x(j0,m0) + 0.61538 y(j0,k2,m0) -0.30000 y(j2,k0,m0) -0.01868 x(j2,m0) -0.30000 y(j0,k1,m1) + 0.02041 x(j1,m1) -0.30000 y(j1,k0,m2) -0.02041 x(j1,m2) >= -0.32637
cut_split(178):  0.02041 C -0.30000 y(j2,k0,m0) -0.02041 x(j2,m0) -0.02041 x(j1,m1) -0.30000 y(j1,k2,m1) + 0.02041 x(j2,m1) >= 0.02653
cut_split(179):  0.02041 C -0.40000 y(j1,k0,m0) -0.02041 x(j1,m0) >= 0.02041
cut_split(180):  -0.00607 x(j0,m0) -0.10256 y(j2,k0,m0) -0.01434 x(j2,m0) + 0.02041 x(j0,m1) + 0.60000 y(j0,k2,m1) >= 0.24270
cut_split(181):  0.02041 C -0.00159 x(j0,m0) -0.42222 y(j1,k0,m0) -0.01882 x(j1,m0) >= 0.02517
cut_split(182):  -0.00162 x(j0,m0) + 0.82051 y(j0,k2,m0) -0.01879 x(j2,m0) + 0.02041 x(j0,m1) -0.10000 y(j1,k0,m1) -0.10000 y(j2,k1,m2) >= 0.27640
cut_split(183):  0.02041 C -0.01947 x(j0,m2) -0.15385 y(j0,k2,m2) -0.20000 y(j2,k1,m2) -0.00094 x(j2,m2) >= 0.16829
cut_split(184):  0.02041 C -0.01990 x(j0,m1) -0.17500 y(j0,k1,m1) -0.00051 x(j1,m1) >= 0.18776
cut_split(185):  0.02041 C -0.30000 y(j2,k1,m2) -0.02041 x(j2,m2) >= 0.02041
cut_split(186):  0.02041 C -0.00179 x(j1,m2) -0.31220 y(j2,k1,m2) -0.01862 x(j2,m2) >= 0.03295
cut_split(187):  0.02041 C + 0.01852 x(j0,m0) + 0.60000 y(j0,k2,m0) -0.30769 y(j2,k0,m0) -0.01852 x(j2,m0) -0.40000 y(j2,k1,m2) -0.02041 x(j2,m2) >= -0.23108
cut_split(188):  0.60000 y(j0,k2,m0) -0.02041 x(j2,m0) + 0.01120 x(j0,m2) + 0.05128 y(j2,k0,m2) + 0.00921 x(j2,m2) >= 0.28697
cut_split(189):  -0.00464 x(j0,m2) + 0.27273 y(j0,k1,m2) + 0.50000 y(j2,k0,m2) + 0.00464 x(j1,m2) + 0.50000 y(j1,k2,m2) >= 0.31447
cut_split(190):  0.00248 x(j1,m1) + 0.37838 y(j2,k1,m1) -0.00248 x(j2,m1) + 0.50000 y(j1,k2,m2) >= 0.38831
cut_split(191):  0.50000 y(j0,k2,m0) -0.02041 x(j2,m0) + 0.00863 x(j0,m2) + 0.07692 y(j2,k0,m2) + 0.01177 x(j2,m2) >= 0.31005
cut_split(192):  -0.05000 y(j0,k2,m2) -0.05000 y(j2,k0,m2) >= -0.05000
cut_split(193):  -0.05000 y(j0,k1,m0) -0.05000 y(j2,k0,m0) + 0.02041 x(j1,m0) -0.02041 x(j2,m0) -0.02041 x(j1,m1) -0.05000 y(j1,k2,m1) + 0.02041 x(j2,m1) >= 0.20612
cut_split(194):  -0.10000 y(j0,k2,m2) -0.10000 y(j2,k0,m2) >= -0.10000
cut_split(195):  -0.20000 y(j0,k2,m2) -0.20000 y(j2,k0,m2) >= -0.20000
cut_split(196):  0.60000 y(j2,k1,m0) + 0.00026 x(j0,m1) + 0.58750 y(j1,k0,m1) + 0.60000 y(j0,k2,m1) -0.00026 x(j1,m1) >= 0.58954
cut_split(197):  -0.00960 x(j1,m1) + 0.12973 y(j1,k2,m1) + 0.60000 y(j2,k1,m1) + 0.00960 x(j2,m1) >= 0.20651
cut_split(198):  0.00223 x(j0,m1) + 0.39063 y(j1,k0,m1) + 0.50000 y(j0,k2,m1) -0.00223 x(j1,m1) + 0.50000 y(j2,k1,m1) >= 0.40848
cut_split(199):  0.50000 y(j2,k1,m0) -0.00248 x(j1,m1) + 0.37838 y(j1,k2,m1) + 0.00248 x(j2,m1) >= 0.39823
cut_split(200):  -0.01065 x(j1,m0) + 0.07805 y(j1,k2,m0) + 0.60000 y(j2,k1,m0) + 0.01065 x(j2,m0) >= 0.08870
cut_split(201):  -0.00821 x(j1,m0) + 0.09756 y(j1,k2,m0) + 0.50000 y(j2,k1,m0) + 0.00821 x(j2,m0) >= 0.10577
cut_split(202):  0.00526 x(j0,m2) + 0.50000 y(j0,k1,m2) + 0.24242 y(j1,k0,m2) -0.00526 x(j1,m2) >= 0.27922
cut_split(203):  -0.05000 y(j0,k1,m0) -0.05000 y(j2,k0,m0) -0.05000 y(j1,k2,m0) >= -0.10000
cut_split(204):  -0.10000 y(j0,k1,m0) -0.10000 y(j2,k0,m0) -0.10000 y(j1,k2,m0) >= -0.20000
cut_split(205):  -0.20000 y(j0,k1,m0) -0.20000 y(j2,k0,m0) -0.20000 y(j1,k2,m0) >= -0.40000
cut_split(206):  0.00090 x(j1,m0) -0.15610 y(j1,k2,m0) -0.00090 x(j2,m0) -0.02041 x(j1,m1) + 0.80000 y(j2,k1,m1) + 0.02041 x(j2,m1) >= 0.16954
cut_split(207):  0.00246 x(j0,m0) -0.17949 y(j0,k2,m0) -0.30000 y(j2,k0,m0) -0.00246 x(j2,m0) >= -0.28278
cut_split(208):  0.00502 x(j0,m0) -0.15385 y(j0,k2,m0) -0.40000 y(j2,k0,m0) -0.00502 x(j2,m0) >= -0.36484
cut_split(209):  0.02041 C -0.00073 x(j0,m0) + 0.56410 y(j0,k2,m0) -0.02041 x(j1,m0) + 0.60000 y(j2,k1,m0) + 0.00073 x(j2,m0) >= 0.58671
cut_split(210):  -0.00689 x(j1,m1) + 0.16216 y(j1,k2,m1) + 0.50000 y(j2,k1,m1) + 0.00689 x(j2,m1) >= 0.21732
cut_split(211):  0.00759 x(j0,m0) -0.12821 y(j0,k2,m0) -0.50000 y(j2,k0,m0) -0.00759 x(j2,m0) >= -0.44689
cut_split(212):  -0.05000 y(j0,k1,m2) -0.05000 y(j1,k0,m2) >= -0.05000
cut_split(213):  -0.10000 y(j0,k1,m2) -0.10000 y(j1,k0,m2) >= -0.10000
cut_split(214):  -0.20000 y(j0,k1,m2) -0.20000 y(j1,k0,m2) >= -0.20000
cut_split(215):  -0.20000 y(j0,k2,m0) -0.20000 y(j2,k0,m0) >= -0.20000
cut_split(216):  -0.30000 y(j0,k1,m2) -0.30000 y(j1,k0,m2) >= -0.30000
cut_split(217):  0.02041 x(j0,m1) + 0.60000 y(j0,k2,m1) -0.02041 x(j2,m1) -0.40000 y(j1,k0,m2) -0.00129 x(j1,m2) -0.33659 y(j2,k1,m2) + 0.00129 x(j2,m2) >= -0.30931
cut_split(218):  0.00223 x(j0,m2) -0.29091 y(j0,k1,m2) -0.40000 y(j1,k0,m2) -0.00223 x(j1,m2) >= -0.38442
cut_split(219):  0.02041 C -0.50000 y(j1,k0,m2) -0.50000 y(j2,k1,m2) -0.02041 x(j2,m2) >= -0.47959
cut_split(220):  0.00526 x(j0,m2) -0.24242 y(j0,k1,m2) -0.50000 y(j1,k0,m2) -0.00526 x(j1,m2) >= -0.46320
cut_split(221):  -0.00198 x(j0,m1) + 0.50000 y(j1,k0,m1) + 0.40278 y(j0,k2,m1) + 0.50000 y(j2,k1,m1) + 0.00198 x(j2,m1) >= 0.42063
cut_split(222):  0.02041 C -0.01052 x(j0,m1) + 0.01562 y(j1,k0,m1) -0.00989 x(j1,m1) >= 0.27838
cut_split(223):  -0.05000 y(j1,k2,m2) -0.05000 y(j2,k1,m2) >= -0.05000
cut_split(224):  -0.10000 y(j1,k2,m2) -0.10000 y(j2,k1,m2) >= -0.10000
cut_split(225):  0.00090 x(j1,m2) -0.15610 y(j1,k2,m2) -0.20000 y(j2,k1,m2) -0.00090 x(j2,m2) >= -0.19910
cut_split(226):  0.01910 x(j0,m1) + 0.63611 y(j0,k2,m1) -0.01910 x(j2,m1) -0.30000 y(j1,k0,m2) -0.30000 y(j2,k1,m2) >= -0.22358
cut_split(227):  0.00333 x(j1,m2) -0.13659 y(j1,k2,m2) -0.30000 y(j2,k1,m2) -0.00333 x(j2,m2) >= -0.29667
cut_split(228):  0.02041 x(j0,m1) + 0.60000 y(j0,k2,m1) -0.02041 x(j2,m1) -0.00161 x(j0,m2) -0.32121 y(j1,k0,m2) + 0.00161 x(j1,m2) -0.40000 y(j2,k1,m2) >= -0.30390
cut_split(229):  0.02041 C -0.00235 x(j0,m0) + 0.38462 y(j0,k2,m0) -0.01805 x(j2,m0) -0.02041 x(j1,m1) + 0.50000 y(j2,k1,m1) + 0.02041 x(j2,m1) >= 0.71821
cut_split(230):  -0.02041 x(j0,m0) -0.02500 y(j0,k2,m0) + 0.02041 x(j0,m1) -0.02500 y(j2,k0,m1) >= 0.21990
cut_split(231):  0.02041 C + 0.55000 y(j0,k2,m0) -0.02041 x(j1,m0) + 0.55000 y(j2,k1,m0) >= 0.57041
cut_split(232):  -0.02041 x(j0,m0) -0.02500 y(j0,k1,m0) -0.02500 y(j1,k2,m0) + 0.02041 x(j0,m1) -0.02500 y(j2,k0,m1) >= 0.19490
cut_split(233):  -0.07500 y(j2,k0,m0) -0.02041 x(j2,m0) -0.07500 y(j0,k2,m2) + 0.02041 x(j2,m2) >= 0.14949
cut_split(234):  -0.15000 y(j2,k0,m0) -0.02041 x(j2,m0) -0.15000 y(j0,k2,m2) + 0.02041 x(j2,m2) >= 0.07449
cut_split(235):  -0.00222 x(j0,m0) -0.14103 y(j2,k0,m0) -0.01818 x(j2,m0) -0.25000 y(j0,k2,m2) + 0.02041 x(j2,m2) >= -0.01884
cut_split(236):  0.02041 C -0.02028 x(j1,m0) -0.24390 y(j1,k2,m0) -0.00012 x(j2,m0) >= 0.02128
cut_split(237):  -0.00479 x(j0,m0) -0.11538 y(j2,k0,m0) -0.01562 x(j2,m0) -0.35000 y(j0,k2,m2) + 0.02041 x(j2,m2) >= -0.11115
cut_split(238):  0.55000 y(j2,k1,m0) + 0.55000 y(j1,k0,m1) -0.01934 x(j0,m2) -0.39744 y(j0,k2,m2) + 0.01934 x(j2,m2) >= 0.32658
cut_split(239):  0.02041 x(j0,m1) + 0.65000 y(j0,k2,m1) -0.02041 x(j2,m1) -0.00009 x(j0,m2) -0.34545 y(j1,k0,m2) + 0.00009 x(j1,m2) -0.35000 y(j2,k1,m2) >= -0.26753
cut_split(240):  -0.01143 x(j0,m0) + 0.08974 y(j0,k2,m0) + 0.65000 y(j2,k0,m0) + 0.01143 x(j2,m0) >= 0.12405
cut_split(241):  -0.00887 x(j0,m0) + 0.11538 y(j0,k2,m0) + 0.55000 y(j2,k0,m0) + 0.00887 x(j2,m0) >= 0.14199
cut_split(242):  0.00887 x(j0,m0) + 0.55000 y(j0,k2,m0) + 0.11538 y(j2,k0,m0) -0.00887 x(j2,m0) >= 0.17747
cut_split(243):  -0.02041 x(j0,m0) -0.03750 y(j0,k2,m0) + 0.02041 x(j0,m1) -0.03750 y(j2,k0,m1) >= 0.20740
cut_split(244):  -0.02038 x(j0,m0) -0.06111 y(j0,k1,m0) -0.00003 x(j1,m0) -0.06250 y(j1,k2,m0) + 0.02041 x(j0,m1) -0.06250 y(j2,k0,m1) >= 0.11993
cut_split(245):  0.02041 C + 0.57500 y(j0,k2,m0) -0.02032 x(j1,m0) + 0.57073 y(j2,k1,m0) -0.00009 x(j2,m0) >= 0.59175
cut_split(246):  0.00823 x(j0,m0) + 0.52500 y(j0,k2,m0) + 0.12179 y(j2,k0,m0) -0.00823 x(j2,m0) >= 0.17940
cut_split(247):  -0.16250 y(j2,k0,m0) -0.02041 x(j2,m0) -0.16250 y(j0,k2,m2) + 0.02041 x(j2,m2) >= 0.06199
cut_split(248):  0.02041 C + 0.56250 y(j0,k2,m0) -0.02041 x(j1,m0) + 0.56250 y(j2,k1,m0) >= 0.58291
cut_split(249):  0.00791 x(j0,m0) + 0.51250 y(j0,k2,m0) + 0.12500 y(j2,k0,m0) -0.00791 x(j2,m0) >= 0.18036
cut_split(250):  0.02041 C -0.02041 x(j1,m0) -0.24375 y(j1,k2,m0) >= 0.02041
cut_split(251):  0.02041 C + 0.56875 y(j0,k2,m0) -0.02041 x(j1,m0) + 0.56875 y(j2,k1,m0) >= 0.58916
cut_split(252):  0.00775 x(j0,m0) + 0.50625 y(j0,k2,m0) + 0.12660 y(j2,k0,m0) -0.00775 x(j2,m0) >= 0.18084
cut_split(253):  0.02041 x(j0,m1) + 0.65304 y(j0,k2,m1) -0.02041 x(j2,m1) -0.34687 y(j1,k0,m2) -0.34687 y(j2,k1,m2) >= -0.26525
cut_split(254):  0.02041 C + 0.57187 y(j0,k2,m0) -0.02040 x(j1,m0) + 0.57134 y(j2,k1,m0) -0.00001 x(j2,m0) >= 0.59183
cut_split(255):  0.00767 x(j0,m0) + 0.50313 y(j0,k2,m0) + 0.12740 y(j2,k0,m0) -0.00767 x(j2,m0) >= 0.18108
cut_split(256):  0.02041 C -0.02040 x(j1,m0) -0.24482 y(j1,k2,m0) -0.00001 x(j2,m0) >= 0.02048
cut_split(257):  0.02041 C + 0.57031 y(j0,k2,m0) -0.02041 x(j1,m0) + 0.57031 y(j2,k1,m0) >= 0.59072
cut_split(258):  0.00763 x(j0,m0) + 0.50156 y(j0,k2,m0) + 0.12780 y(j2,k0,m0) -0.00763 x(j2,m0) >= 0.18120
cut_split(259):  0.02041 C + 0.57109 y(j0,k2,m0) -0.02041 x(j1,m0) + 0.57109 y(j2,k1,m0) >= 0.59150
cut_split(260):  0.00761 x(j0,m0) + 0.50078 y(j0,k2,m0) + 0.12800 y(j2,k0,m0) -0.00761 x(j2,m0) >= 0.18126
Bounds
 0 <= C <= 49
 0 <= x(j0,m0) <= 28
 0 <= y(j0,k1,m0) <= 1
 0 <= y(j1,k0,m0) <= 1
 0 <= y(j0,k2,m0) <= 1
 0 <= y(j2,k0,m0) <= 1
 15 <= x(j1,m0) <= 48
 0 <= y(j1,k2,m0) <= 1
 0 <= y(j2,k1,m0) <= 1
 0 <= x(j2,m0) <= 37
 12 <= x(j0,m1) <= 40
 0 <= y(j0,k1,m1) <= 1
 0 <= y(j1,k0,m1) <= 1
 0 <= y(j0,k2,m1) <= 1
 0 <= y(j2,k0,m1) <= 1
 7 <= x(j1,m1) <= 40
 0 <= y(j1,k2,m1) <= 1
 0 <= y(j2,k1,m1) <= 1
 7 <= x(j2,m1) <= 44
 3 <= x(j0,m2) <= 31
 0 <= y(j0,k1,m2) <= 1
 0 <= y(j1,k0,m2) <= 1
 0 <= y(j0,k2,m2) <= 1
 0 <= y(j2,k0,m2) <= 1
 0 <= x(j1,m2) <= 33
 0 <= y(j1,k2,m2) <= 1
 0 <= y(j2,k1,m2) <= 1
 11 <= x(j2,m2) <= 48
Integers
C x(j0,m0) y(j0,k1,m0) y(j1,k0,m0) y(j0,k2,m0) y(j2,k0,m0) x(j1,m0) y(j1,k2,m0) y(j2,k1,m0) x(j2,m0) 
x(j0,m1) y(j0,k1,m1) y(j1,k0,m1) y(j0,k2,m1) y(j2,k0,m1) x(j1,m1) y(j1,k2,m1) y(j2,k1,m1) x(j2,m1) x(j0,m2) 
y(j0,k1,m2) y(j1,k0,m2) y(j0,k2,m2) y(j2,k0,m2) x(j1,m2) y(j1,k2,m2) y(j2,k1,m2) x(j2,m2) 
End
